decision_x1=[0,7];
decision_x2=[0,7];
decision_x3=[0,7];
decision_x4=[0,7];
decision_x5=[0,7];
decision_x6=[0,7];
decision_x7=[0,7];
decision_x8=[0,7];
decision_x9=[0,7];
decision_x10=[0,7];
decision_x11=[0,7];
decision_x12=[0,7];
decision_x13=[0,7];
decision_x14=[0,7];
decision_x15=[0,7];
decision_x16=[0,7];
random_y1=[0,7];
random_y2=[0,7];
random_y3=[0,7];
random_y4=[0,7];
random_y5=[0,7];
random_y6=[0,7];
random_y7=[0,7];
constraint_x2_x1=[
0,0,0.23|
0,1,9.9|
0,2,7.8|
0,3,0.39|
0,4,5.2|
0,5,5|
0,6,4.2|
0,7,8.5|
1,0,3.6|
1,1,6.2|
1,2,6.6|
1,3,8.6|
1,4,4.8|
1,5,3.5|
1,6,0.9|
1,7,3.2|
2,0,5.6|
2,1,0.89|
2,2,9.7|
2,3,3.4|
2,4,1.6|
2,5,0.72|
2,6,7.7|
2,7,4.3|
3,0,5.4|
3,1,2.4|
3,2,10|
3,3,9.9|
3,4,4.5|
3,5,6.6|
3,6,2|
3,7,6.2|
4,0,3.9|
4,1,1.3|
4,2,1|
4,3,8.2|
4,4,4.6|
4,5,9.3|
4,6,8.1|
4,7,7.5|
5,0,1.3|
5,1,0.79|
5,2,5.5|
5,3,1.3|
5,4,5.2|
5,5,1.2|
5,6,0.02|
5,7,8.2|
6,0,0.98|
6,1,1.1|
6,2,7|
6,3,2.1|
6,4,9.9|
6,5,0.27|
6,6,4.1|
6,7,4.8|
7,0,6.4|
7,1,4.7|
7,2,0.68|
7,3,8.4|
7,4,6.2|
7,5,0.22|
7,6,7.7|
7,7,4.2|
];
constraint_x3_x2=[
0,0,7.7|
0,1,4.4|
0,2,0.49|
0,3,4|
0,4,7.6|
0,5,4.5|
0,6,7.6|
0,7,9.6|
1,0,5.3|
1,1,3.8|
1,2,7.6|
1,3,6.2|
1,4,5.8|
1,5,3.4|
1,6,0.24|
1,7,6.6|
2,0,3.2|
2,1,9.8|
2,2,2.9|
2,3,1.5|
2,4,5.5|
2,5,7.1|
2,6,9.7|
2,7,9.3|
3,0,8.4|
3,1,7.4|
3,2,3.4|
3,3,0.94|
3,4,8.4|
3,5,9.1|
3,6,0.39|
3,7,1.1|
4,0,1.5|
4,1,7.3|
4,2,1.8|
4,3,3.3|
4,4,5.5|
4,5,8.8|
4,6,6.1|
4,7,9.7|
5,0,6.7|
5,1,5.4|
5,2,6.2|
5,3,3.2|
5,4,3.1|
5,5,0.011|
5,6,0.69|
5,7,3.8|
6,0,2.8|
6,1,7|
6,2,6.7|
6,3,4.7|
6,4,8.7|
6,5,8.8|
6,6,7.8|
6,7,7.7|
7,0,6|
7,1,7.2|
7,2,4.1|
7,3,0.81|
7,4,8.9|
7,5,5.1|
7,6,8.3|
7,7,8.4|
];
constraint_x4_x3=[
0,0,7.1|
0,1,1.2|
0,2,0.39|
0,3,9.5|
0,4,5.3|
0,5,6.5|
0,6,3.4|
0,7,10|
1,0,8.3|
1,1,3.8|
1,2,7.8|
1,3,0.89|
1,4,0.56|
1,5,5.5|
1,6,3.4|
1,7,9.4|
2,0,8.6|
2,1,7.7|
2,2,0.29|
2,3,0.21|
2,4,4.8|
2,5,4.7|
2,6,0.3|
2,7,1.8|
3,0,4.8|
3,1,1.2|
3,2,5.3|
3,3,6|
3,4,2.8|
3,5,7.4|
3,6,1.8|
3,7,8|
4,0,8.7|
4,1,2|
4,2,5.8|
4,3,4.8|
4,4,8.7|
4,5,2.8|
4,6,8|
4,7,5.9|
5,0,7.1|
5,1,6.5|
5,2,7.7|
5,3,9.7|
5,4,9.6|
5,5,9.6|
5,6,3.6|
5,7,2.1|
6,0,8.9|
6,1,6.8|
6,2,2.3|
6,3,1.4|
6,4,7.9|
6,5,0.53|
6,6,1.1|
6,7,0.87|
7,0,4.3|
7,1,3.8|
7,2,8.8|
7,3,5.1|
7,4,4.1|
7,5,7.9|
7,6,8|
7,7,6.8|
];
constraint_x5_x1=[
0,0,7|
0,1,8.9|
0,2,2.6|
0,3,2.7|
0,4,3.8|
0,5,8.8|
0,6,8|
0,7,1.2|
1,0,8.9|
1,1,5.7|
1,2,0.66|
1,3,7.2|
1,4,3.4|
1,5,7|
1,6,3.9|
1,7,0.34|
2,0,4.4|
2,1,2.4|
2,2,5.7|
2,3,3.9|
2,4,0.84|
2,5,8.7|
2,6,8.8|
2,7,6.6|
3,0,1.9|
3,1,2.2|
3,2,6.1|
3,3,8.6|
3,4,5.4|
3,5,3.1|
3,6,3.7|
3,7,3.5|
4,0,0.22|
4,1,0.53|
4,2,0.97|
4,3,2|
4,4,8.2|
4,5,9.5|
4,6,4.9|
4,7,7.2|
5,0,0.16|
5,1,9.3|
5,2,2.1|
5,3,7.5|
5,4,1.1|
5,5,7.9|
5,6,6.3|
5,7,6|
6,0,0.78|
6,1,0.51|
6,2,7.2|
6,3,1.3|
6,4,5.9|
6,5,8.3|
6,6,3.9|
6,7,0.29|
7,0,8.5|
7,1,9.2|
7,2,6.3|
7,3,3|
7,4,5.9|
7,5,4.1|
7,6,6.1|
7,7,0.92|
];
constraint_x6_x2=[
0,0,3.5|
0,1,1.9|
0,2,5.1|
0,3,8|
0,4,7.6|
0,5,9.6|
0,6,4.4|
0,7,0.56|
1,0,4.8|
1,1,3.5|
1,2,5|
1,3,4.3|
1,4,4.5|
1,5,8.6|
1,6,2.2|
1,7,3.6|
2,0,9.6|
2,1,7.1|
2,2,1.5|
2,3,7.1|
2,4,8.3|
2,5,5.2|
2,6,1.3|
2,7,5.8|
3,0,1.4|
3,1,0.6|
3,2,7.9|
3,3,0.75|
3,4,9.4|
3,5,8.3|
3,6,2|
3,7,8.7|
4,0,8.3|
4,1,2.4|
4,2,7.4|
4,3,8.6|
4,4,6.2|
4,5,0.89|
4,6,2|
4,7,7.3|
5,0,6.1|
5,1,8.1|
5,2,4.1|
5,3,9.1|
5,4,4.5|
5,5,6.5|
5,6,0.61|
5,7,2.5|
6,0,9.7|
6,1,8.8|
6,2,9.5|
6,3,6.6|
6,4,3.9|
6,5,6.4|
6,6,7.1|
6,7,1.8|
7,0,8.6|
7,1,5.9|
7,2,4.3|
7,3,4.5|
7,4,0.43|
7,5,3.9|
7,6,6.3|
7,7,7.5|
];
constraint_x6_x5=[
0,0,8.1|
0,1,7.2|
0,2,1.3|
0,3,7.5|
0,4,4.4|
0,5,6.2|
0,6,6.6|
0,7,7|
1,0,9.4|
1,1,0.42|
1,2,8.3|
1,3,7|
1,4,2.7|
1,5,3.8|
1,6,7.6|
1,7,8.5|
2,0,9.7|
2,1,0.11|
2,2,0.88|
2,3,1.1|
2,4,0.44|
2,5,9.9|
2,6,4.8|
2,7,3.9|
3,0,9.5|
3,1,6|
3,2,5|
3,3,3.7|
3,4,6|
3,5,1.6|
3,6,3.2|
3,7,4.5|
4,0,3.6|
4,1,3.4|
4,2,4.5|
4,3,0.41|
4,4,0.23|
4,5,3.7|
4,6,0.15|
4,7,9.5|
5,0,8|
5,1,5.6|
5,2,4|
5,3,9.6|
5,4,0.57|
5,5,7.2|
5,6,1.1|
5,7,7.1|
6,0,1.7|
6,1,3.5|
6,2,5.3|
6,3,5.5|
6,4,5|
6,5,9|
6,6,1.3|
6,7,0.5|
7,0,9.5|
7,1,9.1|
7,2,6.6|
7,3,5.6|
7,4,0.56|
7,5,6.2|
7,6,6.2|
7,7,4|
];
constraint_x7_x3=[
0,0,1.3|
0,1,1.6|
0,2,9.6|
0,3,7.6|
0,4,9.2|
0,5,5.4|
0,6,4.3|
0,7,4.9|
1,0,9.2|
1,1,6.4|
1,2,1.2|
1,3,2.5|
1,4,9.8|
1,5,5.2|
1,6,1.4|
1,7,4.6|
2,0,9.3|
2,1,4|
2,2,6.4|
2,3,3.5|
2,4,2.9|
2,5,4.8|
2,6,2.4|
2,7,7.4|
3,0,6.2|
3,1,8.1|
3,2,9.3|
3,3,0.7|
3,4,3.8|
3,5,8.8|
3,6,9.2|
3,7,0.71|
4,0,8|
4,1,5.4|
4,2,1.3|
4,3,7.4|
4,4,0.36|
4,5,2|
4,6,3.5|
4,7,4.2|
5,0,3.8|
5,1,2.1|
5,2,9.6|
5,3,8.9|
5,4,6.9|
5,5,5.5|
5,6,6.4|
5,7,5.8|
6,0,3.7|
6,1,7.4|
6,2,9.1|
6,3,6.4|
6,4,5.8|
6,5,8.1|
6,6,8.1|
6,7,0.092|
7,0,3.3|
7,1,3.2|
7,2,1.5|
7,3,2.1|
7,4,8.6|
7,5,6.7|
7,6,3.9|
7,7,1.8|
];
constraint_x7_x6=[
0,0,9.2|
0,1,4.8|
0,2,5|
0,3,5|
0,4,0.88|
0,5,1.8|
0,6,4.2|
0,7,3.6|
1,0,5.9|
1,1,1.6|
1,2,1.6|
1,3,7.5|
1,4,0.77|
1,5,4.9|
1,6,9.8|
1,7,9.1|
2,0,1.4|
2,1,5.4|
2,2,2.3|
2,3,9.5|
2,4,0.61|
2,5,1.8|
2,6,6.2|
2,7,5.1|
3,0,1.3|
3,1,1.1|
3,2,6.8|
3,3,8.1|
3,4,7|
3,5,3.7|
3,6,3.5|
3,7,0.85|
4,0,4.4|
4,1,2|
4,2,8|
4,3,2.6|
4,4,3.1|
4,5,5.8|
4,6,9.9|
4,7,3.9|
5,0,6.9|
5,1,9.7|
5,2,6.5|
5,3,4.3|
5,4,3.8|
5,5,8.6|
5,6,9.5|
5,7,7.3|
6,0,5.1|
6,1,5.4|
6,2,6.2|
6,3,0.26|
6,4,1.5|
6,5,8.4|
6,6,9.3|
6,7,7.3|
7,0,0.9|
7,1,6.3|
7,2,4.5|
7,3,0.52|
7,4,3.3|
7,5,4.7|
7,6,3.3|
7,7,8.1|
];
constraint_x8_x4=[
0,0,7.6|
0,1,6.8|
0,2,6.9|
0,3,2.9|
0,4,9.4|
0,5,3|
0,6,7.3|
0,7,2.8|
1,0,4.1|
1,1,0.66|
1,2,1.9|
1,3,3.7|
1,4,4.2|
1,5,7.5|
1,6,5.9|
1,7,9.8|
2,0,1.6|
2,1,7.2|
2,2,5.6|
2,3,3.8|
2,4,4.3|
2,5,3.9|
2,6,0.48|
2,7,0.65|
3,0,5.4|
3,1,4.4|
3,2,1.8|
3,3,3.3|
3,4,0.11|
3,5,3.4|
3,6,2.8|
3,7,3.6|
4,0,0.78|
4,1,9.5|
4,2,6.6|
4,3,0.93|
4,4,6.2|
4,5,0.77|
4,6,3.8|
4,7,5.1|
5,0,5.4|
5,1,9.4|
5,2,3.5|
5,3,0.97|
5,4,2.6|
5,5,1.9|
5,6,5.2|
5,7,1.6|
6,0,0.8|
6,1,1|
6,2,7.2|
6,3,3.4|
6,4,6.7|
6,5,7.3|
6,6,5.7|
6,7,1.8|
7,0,8.3|
7,1,3.7|
7,2,2.3|
7,3,9.7|
7,4,3.5|
7,5,8|
7,6,3.6|
7,7,4.3|
];
constraint_x8_x7=[
0,0,2.6|
0,1,0.78|
0,2,2.1|
0,3,3.8|
0,4,0.87|
0,5,4.1|
0,6,9.5|
0,7,1.5|
1,0,5.8|
1,1,3.2|
1,2,9.8|
1,3,5|
1,4,1.7|
1,5,8.4|
1,6,1|
1,7,5.2|
2,0,6.4|
2,1,2.2|
2,2,9.5|
2,3,9.9|
2,4,9.1|
2,5,2.4|
2,6,3.2|
2,7,5.7|
3,0,0.21|
3,1,2.7|
3,2,5.9|
3,3,5.4|
3,4,4.2|
3,5,3.4|
3,6,2|
3,7,3.6|
4,0,5.4|
4,1,4.1|
4,2,6.4|
4,3,1.4|
4,4,7.2|
4,5,5.1|
4,6,0.4|
4,7,6|
5,0,7.5|
5,1,0.92|
5,2,5.6|
5,3,7.5|
5,4,6.9|
5,5,4.1|
5,6,3.1|
5,7,5.2|
6,0,4.6|
6,1,7.7|
6,2,8.2|
6,3,10|
6,4,3|
6,5,1.3|
6,6,6.4|
6,7,0.94|
7,0,2.1|
7,1,1.8|
7,2,4|
7,3,8.6|
7,4,5.9|
7,5,2.3|
7,6,0.069|
7,7,2.7|
];
constraint_x9_x5=[
0,0,9.5|
0,1,0.72|
0,2,9.5|
0,3,3.7|
0,4,2.1|
0,5,7.3|
0,6,4.1|
0,7,5.1|
1,0,7.5|
1,1,1.6|
1,2,9.9|
1,3,6.3|
1,4,2.6|
1,5,9.5|
1,6,7.9|
1,7,2.1|
2,0,7.1|
2,1,3|
2,2,0.78|
2,3,0.38|
2,4,0.6|
2,5,5.8|
2,6,6.3|
2,7,8.6|
3,0,2.3|
3,1,5|
3,2,3|
3,3,4.4|
3,4,1.1|
3,5,0.77|
3,6,8.8|
3,7,8|
4,0,9|
4,1,5.2|
4,2,6.2|
4,3,7.5|
4,4,0.83|
4,5,7.6|
4,6,0.38|
4,7,3.2|
5,0,1.5|
5,1,8.2|
5,2,2.5|
5,3,3.8|
5,4,6.1|
5,5,9.4|
5,6,7.9|
5,7,0.39|
6,0,2.1|
6,1,4.4|
6,2,7.9|
6,3,3.2|
6,4,8.9|
6,5,7.3|
6,6,2.3|
6,7,7.3|
7,0,0.37|
7,1,9.6|
7,2,5.2|
7,3,6.9|
7,4,5.7|
7,5,4.6|
7,6,1.2|
7,7,6.7|
];
constraint_x10_x6=[
0,0,1.2|
0,1,5.3|
0,2,9.3|
0,3,9.7|
0,4,7.5|
0,5,9.1|
0,6,0.93|
0,7,8|
1,0,7.2|
1,1,4.7|
1,2,7.5|
1,3,9.5|
1,4,5.9|
1,5,5.6|
1,6,3.9|
1,7,5.4|
2,0,7.3|
2,1,3.3|
2,2,4.1|
2,3,1.4|
2,4,0.64|
2,5,2.1|
2,6,8|
2,7,2.3|
3,0,9.3|
3,1,4.1|
3,2,5.8|
3,3,8.7|
3,4,3.4|
3,5,9.7|
3,6,5.1|
3,7,8.5|
4,0,2.4|
4,1,3|
4,2,3|
4,3,9.6|
4,4,0.34|
4,5,0.89|
4,6,8.2|
4,7,6.3|
5,0,3.4|
5,1,0.47|
5,2,8.3|
5,3,7.9|
5,4,1.6|
5,5,9.3|
5,6,8.2|
5,7,5.5|
6,0,3.6|
6,1,3.9|
6,2,4.8|
6,3,9.9|
6,4,8.6|
6,5,6.1|
6,6,1.9|
6,7,8|
7,0,1.9|
7,1,8.3|
7,2,4.7|
7,3,4.6|
7,4,4.5|
7,5,2.1|
7,6,6.2|
7,7,0.8|
];
constraint_x10_x9=[
0,0,6.1|
0,1,9.9|
0,2,3.2|
0,3,0.58|
0,4,2.9|
0,5,8.5|
0,6,9.9|
0,7,2.2|
1,0,4.8|
1,1,8.1|
1,2,4.9|
1,3,9.8|
1,4,1.3|
1,5,1.3|
1,6,5.1|
1,7,8.3|
2,0,3.6|
2,1,4.5|
2,2,4.3|
2,3,8.2|
2,4,7.9|
2,5,9.4|
2,6,3.4|
2,7,8.6|
3,0,7.2|
3,1,2.9|
3,2,9.2|
3,3,3.4|
3,4,8.1|
3,5,3.5|
3,6,8.9|
3,7,1.9|
4,0,0.69|
4,1,5.9|
4,2,0.029|
4,3,1.5|
4,4,0.93|
4,5,2.6|
4,6,8|
4,7,2.5|
5,0,1.8|
5,1,0.54|
5,2,6.7|
5,3,8|
5,4,5.1|
5,5,2.7|
5,6,5.5|
5,7,4.3|
6,0,5|
6,1,1.4|
6,2,2.2|
6,3,0.014|
6,4,9|
6,5,6.7|
6,6,8.3|
6,7,9|
7,0,1.2|
7,1,6.9|
7,2,4.9|
7,3,1.6|
7,4,4|
7,5,0.66|
7,6,7.1|
7,7,4.5|
];
constraint_x11_x7=[
0,0,2.4|
0,1,2.5|
0,2,5.9|
0,3,4.2|
0,4,9|
0,5,3.6|
0,6,1.8|
0,7,6.1|
1,0,5|
1,1,3.8|
1,2,4.3|
1,3,2.6|
1,4,2.6|
1,5,4.7|
1,6,4.5|
1,7,0.45|
2,0,5.6|
2,1,2|
2,2,5|
2,3,2|
2,4,4.4|
2,5,6.7|
2,6,4.1|
2,7,3.8|
3,0,8.8|
3,1,8.4|
3,2,8.4|
3,3,2.2|
3,4,4|
3,5,1.3|
3,6,6.5|
3,7,4|
4,0,3.5|
4,1,2.5|
4,2,1.8|
4,3,7.3|
4,4,3.1|
4,5,3.3|
4,6,3.8|
4,7,0.93|
5,0,5.3|
5,1,2.4|
5,2,7.2|
5,3,8.8|
5,4,2.3|
5,5,8.7|
5,6,5.4|
5,7,0.85|
6,0,0.83|
6,1,0.25|
6,2,1.7|
6,3,3.1|
6,4,4.8|
6,5,7.1|
6,6,4.7|
6,7,8.4|
7,0,2.9|
7,1,3.1|
7,2,9.5|
7,3,4.2|
7,4,8.2|
7,5,1.4|
7,6,1.8|
7,7,1.6|
];
constraint_x11_x10=[
0,0,9.9|
0,1,9.3|
0,2,1.7|
0,3,0.32|
0,4,1.1|
0,5,7.8|
0,6,8.6|
0,7,5|
1,0,5.7|
1,1,5.3|
1,2,6.3|
1,3,4.7|
1,4,1.8|
1,5,7.7|
1,6,0.69|
1,7,7.2|
2,0,5.6|
2,1,4.5|
2,2,9.1|
2,3,3.6|
2,4,8.3|
2,5,2.7|
2,6,0.47|
2,7,1.1|
3,0,8|
3,1,5.1|
3,2,5.1|
3,3,1.9|
3,4,6.7|
3,5,4.5|
3,6,2.9|
3,7,4.2|
4,0,2.1|
4,1,0.78|
4,2,8.3|
4,3,4.2|
4,4,2.6|
4,5,0.15|
4,6,7.4|
4,7,5.4|
5,0,0.19|
5,1,3.6|
5,2,5|
5,3,0.13|
5,4,10|
5,5,0.78|
5,6,10|
5,7,3.8|
6,0,7.1|
6,1,5.5|
6,2,9.3|
6,3,5.5|
6,4,9|
6,5,5|
6,6,9.8|
6,7,8.6|
7,0,3.2|
7,1,6.9|
7,2,7.7|
7,3,8.6|
7,4,1.7|
7,5,8.3|
7,6,1.4|
7,7,7.7|
];
constraint_x12_x8=[
0,0,9.3|
0,1,4|
0,2,1.7|
0,3,4.5|
0,4,2|
0,5,9.4|
0,6,2.5|
0,7,4.7|
1,0,2.4|
1,1,4.7|
1,2,9.9|
1,3,5.6|
1,4,0.49|
1,5,0.92|
1,6,5.3|
1,7,2.8|
2,0,6.9|
2,1,5.7|
2,2,7.3|
2,3,2.1|
2,4,9.3|
2,5,1.2|
2,6,1|
2,7,9.3|
3,0,9.4|
3,1,9.5|
3,2,6.2|
3,3,0.83|
3,4,5.4|
3,5,7.4|
3,6,8.3|
3,7,7.1|
4,0,9.5|
4,1,8.9|
4,2,8.8|
4,3,2.4|
4,4,1.4|
4,5,2.1|
4,6,2.4|
4,7,3.9|
5,0,9.9|
5,1,0.64|
5,2,5|
5,3,9.3|
5,4,5.7|
5,5,0.86|
5,6,1.3|
5,7,0.23|
6,0,4.9|
6,1,9.7|
6,2,9|
6,3,7|
6,4,6.8|
6,5,6.9|
6,6,0.89|
6,7,8.8|
7,0,4.4|
7,1,3.6|
7,2,8|
7,3,2.4|
7,4,3.5|
7,5,2.7|
7,6,7.8|
7,7,3.2|
];
constraint_x12_x11=[
0,0,7.5|
0,1,8.8|
0,2,5.3|
0,3,3.3|
0,4,5.3|
0,5,7.8|
0,6,0.53|
0,7,3.9|
1,0,6.4|
1,1,2.2|
1,2,6.4|
1,3,8.9|
1,4,7|
1,5,2.1|
1,6,9.4|
1,7,3|
2,0,6|
2,1,0.73|
2,2,8.4|
2,3,5.5|
2,4,9.1|
2,5,3|
2,6,3.1|
2,7,6.1|
3,0,8.1|
3,1,0.98|
3,2,6.4|
3,3,6.3|
3,4,9.7|
3,5,6.8|
3,6,0.51|
3,7,8.3|
4,0,6.7|
4,1,0.35|
4,2,3.1|
4,3,5.7|
4,4,2.6|
4,5,1.8|
4,6,2.5|
4,7,7.3|
5,0,8.9|
5,1,5|
5,2,8.5|
5,3,0.12|
5,4,2.6|
5,5,3|
5,6,6.9|
5,7,0.16|
6,0,9.5|
6,1,3.7|
6,2,0.42|
6,3,9.2|
6,4,1.8|
6,5,2.4|
6,6,1.1|
6,7,0.6|
7,0,7.1|
7,1,9.9|
7,2,3.1|
7,3,1.4|
7,4,2.5|
7,5,7.5|
7,6,9.9|
7,7,8.6|
];
constraint_x13_x9=[
0,0,3.6|
0,1,5|
0,2,5.1|
0,3,4.6|
0,4,0.0071|
0,5,9.7|
0,6,5.2|
0,7,7|
1,0,9|
1,1,1.6|
1,2,3.6|
1,3,0.67|
1,4,5.3|
1,5,10|
1,6,6.9|
1,7,5.2|
2,0,4.7|
2,1,8.2|
2,2,4.2|
2,3,2.4|
2,4,8.7|
2,5,7.9|
2,6,1.7|
2,7,7.7|
3,0,0.66|
3,1,4|
3,2,5.4|
3,3,5.4|
3,4,9.2|
3,5,3.5|
3,6,2.5|
3,7,1.4|
4,0,9|
4,1,2.3|
4,2,8.1|
4,3,5.8|
4,4,7.9|
4,5,1.9|
4,6,3.1|
4,7,9|
5,0,8.5|
5,1,9.8|
5,2,4.8|
5,3,7|
5,4,4.4|
5,5,7.3|
5,6,0.25|
5,7,3.2|
6,0,3.3|
6,1,9.1|
6,2,5|
6,3,9.4|
6,4,5.2|
6,5,8.7|
6,6,0.25|
6,7,8.2|
7,0,1.1|
7,1,7.5|
7,2,6.2|
7,3,5.4|
7,4,2.5|
7,5,8.9|
7,6,8.5|
7,7,4.5|
];
constraint_x14_x10=[
0,0,0.91|
0,1,5.8|
0,2,8.8|
0,3,1.5|
0,4,5.4|
0,5,9|
0,6,8.8|
0,7,2.4|
1,0,1.4|
1,1,3.7|
1,2,9.4|
1,3,4.7|
1,4,3.4|
1,5,9.3|
1,6,2.8|
1,7,3.8|
2,0,8.9|
2,1,3.7|
2,2,7.6|
2,3,1.2|
2,4,3.6|
2,5,3.1|
2,6,1.8|
2,7,5.7|
3,0,3.5|
3,1,8.8|
3,2,1.4|
3,3,7.3|
3,4,2|
3,5,5.2|
3,6,1.7|
3,7,0.56|
4,0,5|
4,1,8.3|
4,2,9.7|
4,3,8.3|
4,4,3.4|
4,5,8.3|
4,6,2.6|
4,7,2.5|
5,0,9.6|
5,1,5.1|
5,2,2.1|
5,3,0.94|
5,4,8.3|
5,5,5.7|
5,6,8.8|
5,7,7|
6,0,1.2|
6,1,0.11|
6,2,9|
6,3,5.9|
6,4,8.8|
6,5,4.1|
6,6,5.5|
6,7,6|
7,0,3.1|
7,1,9|
7,2,4.6|
7,3,1.7|
7,4,7.4|
7,5,0.24|
7,6,1.4|
7,7,4.2|
];
constraint_x15_x11=[
0,0,9.2|
0,1,1.9|
0,2,2.3|
0,3,0.6|
0,4,3.8|
0,5,8.9|
0,6,4.3|
0,7,5.2|
1,0,2.7|
1,1,7.5|
1,2,2.6|
1,3,1|
1,4,5|
1,5,5.9|
1,6,1.5|
1,7,3.7|
2,0,2|
2,1,6.6|
2,2,7.7|
2,3,4.4|
2,4,8.8|
2,5,7.8|
2,6,7.7|
2,7,5.6|
3,0,2.3|
3,1,4.4|
3,2,7.1|
3,3,9.9|
3,4,8.5|
3,5,5.4|
3,6,0.75|
3,7,9.4|
4,0,6.8|
4,1,0.98|
4,2,1.1|
4,3,1.6|
4,4,5.2|
4,5,6.8|
4,6,6.4|
4,7,3|
5,0,5.6|
5,1,3.1|
5,2,8.9|
5,3,4.9|
5,4,5.1|
5,5,3|
5,6,5|
5,7,3.7|
6,0,1|
6,1,8|
6,2,6|
6,3,5.8|
6,4,2.8|
6,5,1.5|
6,6,5.7|
6,7,9|
7,0,2.1|
7,1,5.1|
7,2,6.1|
7,3,7.5|
7,4,7|
7,5,8.2|
7,6,2.3|
7,7,1.9|
];
constraint_x16_x12=[
0,0,6.2|
0,1,5.4|
0,2,7.9|
0,3,2.2|
0,4,1.1|
0,5,3|
0,6,4.6|
0,7,8.3|
1,0,0.14|
1,1,9.4|
1,2,6.6|
1,3,5.1|
1,4,5.3|
1,5,8.6|
1,6,0.9|
1,7,9.8|
2,0,0.22|
2,1,4|
2,2,2|
2,3,9.8|
2,4,7.6|
2,5,4.3|
2,6,3.2|
2,7,9.4|
3,0,1.1|
3,1,0.47|
3,2,8.4|
3,3,6|
3,4,8.7|
3,5,4.8|
3,6,2.3|
3,7,1.5|
4,0,4.5|
4,1,2.4|
4,2,9.3|
4,3,1.8|
4,4,9.6|
4,5,5.1|
4,6,9.1|
4,7,2.7|
5,0,1|
5,1,2.8|
5,2,2.3|
5,3,4.6|
5,4,0.73|
5,5,0.58|
5,6,5|
5,7,6|
6,0,8.4|
6,1,5.3|
6,2,5.6|
6,3,0.89|
6,4,2.4|
6,5,4.5|
6,6,2.6|
6,7,0.67|
7,0,5.4|
7,1,6.3|
7,2,5.5|
7,3,7.6|
7,4,8|
7,5,8.1|
7,6,7.1|
7,7,8.4|
];
constraint_x1_y1=[
0,0,0.051|
0,1,6|
0,2,2.9|
0,3,5.9|
0,4,4.9|
0,5,6.3|
0,6,4|
0,7,6.8|
1,0,8.3|
1,1,8.9|
1,2,9.7|
1,3,8.4|
1,4,8|
1,5,3.3|
1,6,9.4|
1,7,7.9|
2,0,3.5|
2,1,8.2|
2,2,3.9|
2,3,2.3|
2,4,8.9|
2,5,4.7|
2,6,7.5|
2,7,7.6|
3,0,7.8|
3,1,2.1|
3,2,0.63|
3,3,7.4|
3,4,1.8|
3,5,8.3|
3,6,2.9|
3,7,3.8|
4,0,3.5|
4,1,4.3|
4,2,2.9|
4,3,7.4|
4,4,9.2|
4,5,7.7|
4,6,9.4|
4,7,4.7|
5,0,6.7|
5,1,4.1|
5,2,5.6|
5,3,9.3|
5,4,8.6|
5,5,4|
5,6,2.6|
5,7,1.1|
6,0,5.9|
6,1,0.99|
6,2,7.6|
6,3,8.1|
6,4,9.9|
6,5,8.2|
6,6,8.2|
6,7,4.4|
7,0,5.8|
7,1,1.2|
7,2,5.9|
7,3,7.1|
7,4,7.2|
7,5,2.7|
7,6,3|
7,7,2.5|
];
constraint_x2_y2=[
0,0,8.6|
0,1,6.5|
0,2,0.2|
0,3,7.1|
0,4,3.8|
0,5,0.98|
0,6,1.3|
0,7,2.5|
1,0,8.9|
1,1,2.3|
1,2,9|
1,3,1.2|
1,4,5.4|
1,5,1.8|
1,6,1.2|
1,7,4.8|
2,0,0.31|
2,1,6.8|
2,2,0.51|
2,3,7.2|
2,4,0.41|
2,5,9.5|
2,6,1.6|
2,7,0.37|
3,0,2.9|
3,1,1.4|
3,2,2.6|
3,3,0.5|
3,4,3.9|
3,5,5|
3,6,2.3|
3,7,9.9|
4,0,3.7|
4,1,9.5|
4,2,6.2|
4,3,3|
4,4,7.3|
4,5,6.5|
4,6,1.8|
4,7,3.9|
5,0,8.6|
5,1,2.1|
5,2,5.3|
5,3,5.1|
5,4,0.35|
5,5,0.036|
5,6,0.63|
5,7,3.4|
6,0,0.89|
6,1,0.32|
6,2,7.7|
6,3,3.4|
6,4,5.4|
6,5,1.5|
6,6,7.1|
6,7,9.8|
7,0,8|
7,1,7.4|
7,2,3.3|
7,3,9.9|
7,4,5.9|
7,5,0.73|
7,6,6|
7,7,2.4|
];
constraint_x3_y3=[
0,0,5.5|
0,1,2.7|
0,2,7.1|
0,3,6.3|
0,4,4|
0,5,3.7|
0,6,6.9|
0,7,2|
1,0,1.4|
1,1,9.5|
1,2,8.5|
1,3,7|
1,4,7|
1,5,5.6|
1,6,5|
1,7,5.7|
2,0,2.8|
2,1,7.2|
2,2,6.5|
2,3,7.3|
2,4,1.1|
2,5,9.2|
2,6,3|
2,7,3.8|
3,0,0.093|
3,1,0.72|
3,2,4.5|
3,3,7.3|
3,4,5.8|
3,5,8.4|
3,6,2|
3,7,3.9|
4,0,3.2|
4,1,1|
4,2,9.8|
4,3,8.6|
4,4,8.1|
4,5,0.43|
4,6,7.3|
4,7,6.7|
5,0,7.2|
5,1,9.8|
5,2,6.4|
5,3,5.1|
5,4,0.056|
5,5,1.9|
5,6,0.94|
5,7,2.7|
6,0,2.5|
6,1,0.91|
6,2,0.51|
6,3,6.4|
6,4,5.4|
6,5,3|
6,6,1.6|
6,7,5.5|
7,0,2|
7,1,7.1|
7,2,6.6|
7,3,2.8|
7,4,5|
7,5,9.1|
7,6,5.6|
7,7,1.3|
];
constraint_x4_y4=[
0,0,2.8|
0,1,3.1|
0,2,9.9|
0,3,1.7|
0,4,1.8|
0,5,7.2|
0,6,3.1|
0,7,7.9|
1,0,2.5|
1,1,9.2|
1,2,4.5|
1,3,7.9|
1,4,4.8|
1,5,5|
1,6,6.4|
1,7,3.5|
2,0,0.67|
2,1,1.2|
2,2,0.19|
2,3,2.6|
2,4,1.3|
2,5,4.2|
2,6,9.7|
2,7,2.3|
3,0,0.54|
3,1,2.5|
3,2,7.8|
3,3,7.4|
3,4,3.3|
3,5,0.74|
3,6,3.8|
3,7,9.5|
4,0,7.7|
4,1,7.6|
4,2,7.2|
4,3,3.3|
4,4,7.6|
4,5,2|
4,6,3.9|
4,7,8|
5,0,3.3|
5,1,5.5|
5,2,4.8|
5,3,2.6|
5,4,3|
5,5,8|
5,6,6.8|
5,7,8.4|
6,0,3.8|
6,1,2.2|
6,2,4.7|
6,3,7.6|
6,4,5|
6,5,0.35|
6,6,8.2|
6,7,4.1|
7,0,1.5|
7,1,1.9|
7,2,7.9|
7,3,1.6|
7,4,0.76|
7,5,7.4|
7,6,8.8|
7,7,6.8|
];
constraint_x5_y5=[
0,0,7.8|
0,1,2.1|
0,2,1.4|
0,3,5|
0,4,9.6|
0,5,8.9|
0,6,6.4|
0,7,0.91|
1,0,3.4|
1,1,3.9|
1,2,3.7|
1,3,5.7|
1,4,0.01|
1,5,0.57|
1,6,5.8|
1,7,8.8|
2,0,0.82|
2,1,5.4|
2,2,1.1|
2,3,0.3|
2,4,2.6|
2,5,8.1|
2,6,0.33|
2,7,9.1|
3,0,9.4|
3,1,6.7|
3,2,6|
3,3,4.1|
3,4,7.8|
3,5,6.9|
3,6,4.6|
3,7,3.1|
4,0,5.3|
4,1,4.7|
4,2,2.6|
4,3,7.4|
4,4,9.8|
4,5,9.7|
4,6,0.23|
4,7,2|
5,0,2.1|
5,1,6.7|
5,2,5.7|
5,3,0.91|
5,4,6.7|
5,5,5.8|
5,6,9.7|
5,7,1.7|
6,0,8.7|
6,1,3.8|
6,2,8.7|
6,3,3|
6,4,5.8|
6,5,2.6|
6,6,9.4|
6,7,1.1|
7,0,9.9|
7,1,3.5|
7,2,2.9|
7,3,4.4|
7,4,7.5|
7,5,1.4|
7,6,4.6|
7,7,8.7|
];
constraint_x6_y6=[
0,0,0.85|
0,1,3.8|
0,2,8.8|
0,3,4.1|
0,4,4.1|
0,5,3.1|
0,6,4.4|
0,7,2.1|
1,0,8.3|
1,1,7|
1,2,7.4|
1,3,4.5|
1,4,1.9|
1,5,9.7|
1,6,8.8|
1,7,0.78|
2,0,9.9|
2,1,7.4|
2,2,8|
2,3,0.3|
2,4,0.91|
2,5,3.5|
2,6,3.9|
2,7,0.93|
3,0,6.7|
3,1,5|
3,2,7.9|
3,3,9.9|
3,4,2.4|
3,5,8.9|
3,6,9.9|
3,7,8|
4,0,2.3|
4,1,7.6|
4,2,7.7|
4,3,1.7|
4,4,5.3|
4,5,6.4|
4,6,3.2|
4,7,8.6|
5,0,0.98|
5,1,0.55|
5,2,4.3|
5,3,8.3|
5,4,9.1|
5,5,0.96|
5,6,9.6|
5,7,5.5|
6,0,9.5|
6,1,6.2|
6,2,4.7|
6,3,0.64|
6,4,6.5|
6,5,1.8|
6,6,8.6|
6,7,9.9|
7,0,6|
7,1,9.6|
7,2,7.7|
7,3,8.5|
7,4,7.8|
7,5,8.6|
7,6,3.8|
7,7,3.3|
];
constraint_x7_y7=[
0,0,9.4|
0,1,0.32|
0,2,1.7|
0,3,1.2|
0,4,3.7|
0,5,3.8|
0,6,0.084|
0,7,6|
1,0,4.2|
1,1,0.92|
1,2,1.2|
1,3,5.1|
1,4,3.7|
1,5,8.7|
1,6,0.69|
1,7,6.1|
2,0,9.9|
2,1,3.3|
2,2,7.8|
2,3,4|
2,4,0.9|
2,5,1.8|
2,6,10|
2,7,5.4|
3,0,0.81|
3,1,6|
3,2,3.8|
3,3,7.2|
3,4,6.6|
3,5,1.8|
3,6,7.6|
3,7,6.3|
4,0,5.1|
4,1,6.5|
4,2,3.6|
4,3,7.3|
4,4,1.8|
4,5,2.9|
4,6,8.2|
4,7,9|
5,0,6.5|
5,1,4.8|
5,2,1.9|
5,3,2.9|
5,4,6.1|
5,5,2.8|
5,6,9.8|
5,7,2.2|
6,0,2.5|
6,1,6.8|
6,2,0.31|
6,3,6.6|
6,4,5.2|
6,5,6.4|
6,6,1.5|
6,7,4.1|
7,0,2.8|
7,1,3.8|
7,2,9.8|
7,3,2.9|
7,4,7.3|
7,5,8|
7,6,9|
7,7,3.3|
];
initial_distribution_y1=[0.2,0.017,0.11,0.017,0.27,0.27,0.033,0.085];
initial_distribution_y2=[0.078,0.056,0.17,0.26,0.17,0.085,0.098,0.089];
initial_distribution_y3=[0.0098,0.028,0.016,0.33,0.02,0.33,0.15,0.12];
initial_distribution_y4=[0.12,0.15,0.093,0.28,0.18,0.056,0.097,0.022];
initial_distribution_y5=[0.16,0.016,0.23,0.25,0.036,0.19,0.053,0.064];
initial_distribution_y6=[0.19,0.029,0.03,0.094,0.21,0.17,0.12,0.16];
initial_distribution_y7=[0.2,0.11,0.061,0.18,0.097,0.16,0.018,0.17];
transition_y1=[
0.11,0.17,0.17,0.042,0.15,0.13,0.012,0.22|
0.1,0.05,0.18,0.011,0.17,0.13,0.19,0.17|
0.14,0.055,0.13,0.14,0.12,0.16,0.1,0.14|
0.084,0.23,0.18,0.24,0.026,0.2,0.027,0.0096|
0.15,0.11,0.15,0.076,0.17,0.12,0.12,0.1|
0.15,0.038,0.23,0.21,0.047,0.17,0.024,0.12|
0.23,0.17,0.014,0.11,0.12,0.0026,0.14,0.22|
0.14,0.13,0.22,0.15,0.22,0.031,0.099,0.0087|
];
transition_y2=[
0.24,0.19,0.035,0.042,0.013,0.029,0.23,0.22|
0.25,0.094,0.13,0.17,0.16,0.031,0.17,0.0064|
0.2,0.011,0.21,0.15,0.078,0.14,0.049,0.17|
0.029,0.11,0.23,0.14,0.033,0.084,0.14,0.23|
0.11,0.024,0.24,0.21,0.028,0.11,0.12,0.17|
0.18,0.13,0.009,0.039,0.23,0.061,0.13,0.22|
0.09,0.28,0.074,0.024,0.11,0.2,0.097,0.13|
0.12,0.21,0.2,0.018,0.19,0.12,0.048,0.09|
];
transition_y3=[
0.13,0.064,0.23,0.081,0.16,0.0038,0.19,0.14|
0.15,0.14,0.15,0.1,0.12,0.13,0.11,0.09|
0.21,0.069,0.17,0.15,0.24,0.0035,0.12,0.041|
0.0058,0.17,0.14,0.13,0.12,0.13,0.17,0.14|
0.18,0.16,0.1,0.039,0.15,0.03,0.16,0.19|
0.2,0.15,0.078,0.059,0.064,0.17,0.023,0.26|
0.19,0.056,0.12,0.17,0.078,0.13,0.13,0.12|
0.14,0.028,0.069,0.2,0.021,0.095,0.13,0.32|
];
transition_y4=[
0.069,0.17,0.059,0.27,0.042,0.065,0.23,0.098|
0.15,0.2,0.19,0.028,0.011,0.039,0.23,0.16|
0.014,0.22,0.1,0.11,0.21,0.22,0.046,0.079|
0.15,0.15,0.098,0.15,0.12,0.15,0.011,0.16|
0.16,0.11,0.087,0.11,0.035,0.16,0.2,0.13|
0.038,0.033,0.13,0.13,0.19,0.15,0.18,0.14|
0.25,0.091,0.0032,0.044,0.031,0.18,0.23,0.18|
0.22,0.25,0.068,0.0079,0.2,0.0067,0.22,0.029|
];
transition_y5=[
0.02,0.11,0.0068,0.29,0.18,0.14,0.2,0.049|
0.15,0.13,0.2,0.22,0.084,0.12,0.026,0.068|
0.049,0.1,0.028,0.078,0.12,0.24,0.29,0.082|
0.083,0.2,0.053,0.17,0.16,0.23,0.053,0.064|
0.047,0.12,0.22,0.026,0.095,0.25,0.011,0.22|
0.18,0.17,0.037,0.11,0.17,0.17,0.065,0.092|
0.12,0.15,0.054,0.019,0.23,0.16,0.2,0.064|
0.059,0.13,0.052,0.18,0.11,0.17,0.083,0.21|
];
transition_y6=[
0.11,0.096,0.13,0.18,0.14,0.12,0.031,0.2|
0.27,0.17,0.038,0.21,0.014,0.0048,0.19,0.096|
0.084,0.23,0.23,0.11,0.024,0.19,0.088,0.059|
0.22,0.12,0.11,0.15,0.023,0.19,0.11,0.067|
0.015,0.18,0.19,0.22,0.065,0.039,0.18,0.12|
0.011,0.18,0.19,0.18,0.082,0.17,0.11,0.073|
0.06,0.22,0.053,0.24,0.16,0.04,0.11,0.13|
0.15,0.17,0.12,0.099,0.14,0.15,0.14,0.035|
];
transition_y7=[
0.16,0.2,0.061,0.18,0.034,0.11,0.11,0.14|
0.067,0.15,0.07,0.16,0.17,0.13,0.12,0.13|
0.16,0.21,0.17,0.025,0.14,0.13,0.16,0.0028|
0.13,0.0048,0.15,0.19,0.19,0.097,0.054,0.19|
0.11,0.021,0.23,0.052,0.033,0.074,0.23,0.25|
0.036,0.051,0.12,0.086,0.22,0.24,0.16,0.09|
0.16,0.0083,0.17,0.058,0.17,0.14,0.21,0.08|
0.032,0.058,0.38,0.084,0.0048,0.33,0.096,0.0081|
];
